# "Olive: Optimizable Lisp Implementing Various Expressions"

1 1

%word (\ (w) (# "word" w))
%object (\ (o) (# "object" o))
%name (\ (n) (# "name" n))
%load (\ (object index) (# "load" object index))

false 0
true 1
= (# (# "a" "b")
 (%new-leaf (#
  (%and
   (%compare (%load (%name "a") (%word 0)) (%load (%name "b") (%word 0)))
   (%word 1)))))
+ (# (# "a" "b")
 (%new-leaf (#
  (%add (%load (%name "a") (%word 0)) (%load (%name "b") (%word 0))))))



(foo a b) (@add a b)
